data;


param d:= 100;
param r:=5;
param p:=0.780000;
param M:=1000;
param U:=
         1         1       -5.351650e-02
         2         1       -1.686674e-01
         3         1       -1.478487e+00
         4         1        3.022510e-01
         5         1        9.631377e-02
         6         1       -8.708062e-01
         7         1        7.657809e-01
         8         1        3.225223e-01
         9         1        7.174021e-01
        10         1        1.480615e+00
        11         1        1.265252e-01
        12         1        4.521179e-01
        13         1        9.194452e-01
        14         1       -1.637319e-02
        15         1       -1.126285e+00
        16         1       -1.507262e-02
        17         1       -1.635174e+00
        18         1       -1.333509e-01
        19         1        1.192362e+00
        20         1       -7.423528e-01
        21         1        1.314815e+00
        22         1       -3.800715e-01
        23         1        8.948471e-01
        24         1       -7.265495e-01
        25         1       -5.648636e-01
        26         1        1.878928e-01
        27         1        3.007205e-01
        28         1        1.359588e+00
        29         1        6.527958e-01
        30         1        7.620823e-01
        31         1       -5.386090e-01
        32         1        1.148442e+00
        33         1       -1.561856e+00
        34         1        4.988784e-02
        35         1       -9.000675e-01
        36         1       -1.130175e+00
        37         1       -1.708713e+00
        38         1        5.937779e-02
        39         1       -1.897780e+00
        40         1       -7.974784e-01
        41         1        1.305722e+00
        42         1        9.976677e-01
        43         1       -2.618193e-01
        44         1       -5.420809e-01
        45         1        3.229445e-01
        46         1        2.848702e+00
        47         1       -5.104760e-01
        48         1        1.096731e+00
        49         1       -1.279603e+00
        50         1        6.299166e-02
        51         1       -8.669257e-01
        52         1       -5.165544e-01
        53         1        9.361089e-01
        54         1        5.931488e-01
        55         1       -2.963885e-01
        56         1       -1.934393e+00
        57         1       -1.250714e+00
        58         1        2.473027e-01
        59         1       -1.399130e+00
        60         1       -1.226362e-01
        61         1       -8.601966e-01
        62         1        5.190655e-01
        63         1       -1.664902e+00
        64         1       -7.449955e-01
        65         1       -3.166848e-01
        66         1        1.145908e+00
        67         1        4.740531e-01
        68         1        4.199006e-01
        69         1        1.418749e+00
        70         1       -7.451323e-01
        71         1       -7.908706e-01
        72         1       -4.730117e-01
        73         1        2.273494e-01
        74         1       -1.629728e+00
        75         1       -3.619336e-01
        76         1       -5.782344e-01
        77         1        2.936027e-01
        78         1       -3.380226e-01
        79         1        4.402065e-01
        80         1       -2.716733e-01
        81         1       -8.666365e-01
        82         1       -1.283432e-01
        83         1       -1.008724e+00
        84         1       -1.293388e+00
        85         1       -1.751355e-01
        86         1        1.124539e+00
        87         1        9.665826e-01
        88         1        1.965515e+00
        89         1       -9.256110e-01
        90         1       -2.067536e+00
        91         1       -1.342749e+00
        92         1       -7.635892e-01
        93         1        1.365098e+00
        94         1       -6.743560e-01
        95         1       -1.476755e-01
        96         1       -3.610405e-01
        97         1       -1.977372e+00
        98         1       -6.198617e-01
        99         1        3.928620e-01
       100         1       -1.163334e+00
         1         2        4.562207e-01
         2         2        2.666015e-01
         3         2        1.344937e+00
         4         2       -4.053736e-01
         5         2        2.518430e-01
         6         2        6.984285e-01
         7         2        2.974379e-02
         8         2       -1.228343e+00
         9         2        4.678630e-01
        10         2        3.336428e-01
        11         2        1.996659e-01
        12         2       -8.104676e-01
        13         2       -1.063396e+00
        14         2       -1.183286e+00
        15         2       -3.760891e-01
        16         2        4.362720e-02
        17         2       -7.713586e-01
        18         2       -9.828546e-01
        19         2        1.299825e-01
        20         2        1.546373e+00
        21         2        9.136926e-01
        22         2       -1.805461e+00
        23         2        4.728684e-01
        24         2        9.579762e-01
        25         2        1.525401e+00
        26         2       -9.520169e-01
        27         2       -1.122322e+00
        28         2       -3.744444e-01
        29         2       -3.817298e-01
        30         2        1.271783e+00
        31         2       -3.408126e-01
        32         2       -3.935845e-01
        33         2        1.720752e-01
        34         2        1.349992e+00
        35         2        4.780427e-03
        36         2        2.025042e+00
        37         2        1.647527e+00
        38         2        1.927861e+00
        39         2       -9.447590e-02
        40         2        5.241531e-01
        41         2       -1.701444e+00
        42         2       -6.403295e-01
        43         2        9.214952e-02
        44         2       -1.134434e-01
        45         2       -1.298655e+00
        46         2        5.268535e-01
        47         2       -8.174197e-01
        48         2       -1.336502e+00
        49         2       -5.410410e-01
        50         2        6.737310e-01
        51         2        3.564051e-01
        52         2       -1.162124e+00
        53         2        1.638782e+00
        54         2       -1.826125e-01
        55         2       -1.533409e+00
        56         2       -1.037568e+00
        57         2       -1.672176e-02
        58         2        1.607504e+00
        59         2       -1.879819e-01
        60         2       -1.545920e+00
        61         2       -1.675792e+00
        62         2        6.504891e-01
        63         2        2.349367e+00
        64         2       -6.027637e-01
        65         2       -2.072152e-01
        66         2       -1.763872e-02
        67         2        1.667607e+00
        68         2        1.578461e-01
        69         2       -1.242954e+00
        70         2       -1.125195e+00
        71         2        3.022659e-01
        72         2        1.178472e+00
        73         2        1.197478e+00
        74         2       -3.922200e-01
        75         2       -1.160070e+00
        76         2        5.997951e-01
        77         2        8.153595e-01
        78         2       -6.004574e-02
        79         2       -1.231760e+00
        80         2        1.463798e+00
        81         2        1.565794e-01
        82         2       -5.271130e-01
        83         2       -7.233911e-01
        84         2       -2.305034e-01
        85         2       -2.132983e+00
        86         2        4.013997e-01
        87         2        2.474071e+00
        88         2        3.652876e-01
        89         2        5.484940e-02
        90         2        1.267460e+00
        91         2       -1.394370e-01
        92         2       -1.159969e-01
        93         2        9.870897e-01
        94         2       -5.192708e-01
        95         2       -3.981767e-02
        96         2        4.926651e-01
        97         2        4.963570e-01
        98         2       -1.466940e+00
        99         2        9.195242e-01
       100         2       -7.637278e-01
         1         3        1.858728e+00
         2         3       -3.848752e-01
         3         3       -4.964656e-01
         4         3        2.391749e+00
         5         3       -9.041533e-01
         6         3        3.407925e-01
         7         3       -1.072967e+00
         8         3       -7.396733e-01
         9         3        1.044691e+00
        10         3        4.090632e-01
        11         3        2.984328e-01
        12         3        1.799022e+00
        13         3       -1.771028e+00
        14         3       -1.818370e+00
        15         3       -1.948597e+00
        16         3       -7.186793e-01
        17         3        1.342745e+00
        18         3       -1.713670e+00
        19         3       -3.818488e-01
        20         3       -7.104661e-01
        21         3       -4.278263e-02
        22         3        5.263738e-01
        23         3        1.979645e-01
        24         3       -3.474631e-01
        25         3        9.300665e-01
        26         3        3.264493e-02
        27         3        1.509265e+00
        28         3        5.412837e-01
        29         3        3.647702e-01
        30         3        5.856944e-01
        31         3       -4.442729e-01
        32         3       -1.163528e+00
        33         3        3.003131e-01
        34         3        1.663571e-01
        35         3        8.612039e-02
        36         3       -1.551463e+00
        37         3       -6.525059e-01
        38         3        1.965341e+00
        39         3       -3.958659e-01
        40         3        5.338166e-01
        41         3        2.320079e-01
        42         3       -1.281858e+00
        43         3        1.248990e-01
        44         3       -1.829774e+00
        45         3       -1.300352e+00
        46         3        2.574990e-01
        47         3        4.449659e-01
        48         3       -7.444615e-03
        49         3        2.019073e-01
        50         3        1.152318e+00
        51         3       -2.804400e-01
        52         3        1.686255e+00
        53         3       -1.734319e+00
        54         3        4.982258e-01
        55         3       -1.453704e+00
        56         3        9.122734e-01
        57         3       -4.123678e-01
        58         3        1.374532e+00
        59         3        5.164532e-01
        60         3       -1.616154e+00
        61         3       -2.020200e+00
        62         3       -1.046188e-01
        63         3       -1.156722e+00
        64         3       -9.971768e-01
        65         3        5.608197e-01
        66         3       -2.117778e+00
        67         3       -5.179391e-01
        68         3        3.207592e-02
        69         3        1.992015e-01
        70         3        9.149941e-01
        71         3        7.099597e-01
        72         3       -8.341214e-01
        73         3        3.015381e-01
        74         3        2.380084e+00
        75         3       -3.372804e-01
        76         3        8.125072e-01
        77         3       -4.124497e-01
        78         3        6.878018e-01
        79         3        3.443034e-01
        80         3       -1.108155e+00
        81         3        1.251509e+00
        82         3       -5.237416e-01
        83         3        1.063904e+00
        84         3       -5.160301e-01
        85         3       -2.459489e-01
        86         3       -1.563077e-01
        87         3       -4.900373e-02
        88         3        3.240921e-01
        89         3        9.915141e-01
        90         3        3.341576e+00
        91         3       -1.385729e+00
        92         3       -5.358399e-01
        93         3       -1.163603e+00
        94         3       -6.161403e-01
        95         3       -1.289037e-01
        96         3        1.325082e+00
        97         3        1.014444e+00
        98         3        2.903680e-01
        99         3        3.657332e-01
       100         3        1.786736e+00
         1         4       -2.983846e-01
         2         4        7.948681e-01
         3         4       -3.336256e-01
         4         4        1.177681e+00
         5         4       -2.587134e-01
         6         4        6.145411e-01
         7         4       -4.510094e-02
         8         4        1.303436e+00
         9         4        9.630427e-01
        10         4       -3.777232e-01
        11         4       -1.066870e+00
        12         4       -3.642263e-01
        13         4        9.248368e-01
        14         4        1.148302e+00
        15         4        6.478926e-01
        16         4        7.995029e-01
        17         4       -5.069970e-01
        18         4       -4.311705e-01
        19         4        6.773491e-01
        20         4       -1.759455e+00
        21         4        1.416334e-02
        22         4        4.803445e-01
        23         4       -5.370104e-01
        24         4       -5.771762e-01
        25         4       -1.959194e-01
        26         4        5.878582e-01
        27         4        2.666578e-01
        28         4       -4.478817e-01
        29         4       -9.285446e-01
        30         4        1.559749e+00
        31         4       -2.181306e+00
        32         4       -5.779662e-01
        33         4       -4.574620e-01
        34         4       -1.059493e+00
        35         4        1.521792e+00
        36         4       -7.419806e-01
        37         4        5.335607e-02
        38         4       -1.032511e+00
        39         4        1.448795e+00
        40         4        6.706294e-02
        41         4        8.175356e-01
        42         4        1.261187e+00
        43         4       -4.024888e-01
        44         4       -6.416315e-01
        45         4       -2.334798e-01
        46         4       -4.073880e-01
        47         4       -1.316466e+00
        48         4        2.839349e-01
        49         4        3.123211e-02
        50         4        5.158596e-01
        51         4       -5.987695e-01
        52         4        2.161286e+00
        53         4       -5.065470e-01
        54         4       -1.905186e-01
        55         4        5.490429e-01
        56         4       -2.957896e-01
        57         4       -1.728058e+00
        58         4       -2.817210e-01
        59         4       -1.011693e+00
        60         4       -1.563934e+00
        61         4       -5.262240e-01
        62         4        2.763591e-02
        63         4       -2.386902e+00
        64         4       -1.711207e+00
        65         4        1.892576e+00
        66         4       -1.952761e+00
        67         4        2.300664e-01
        68         4       -1.486168e+00
        69         4        1.165100e+00
        70         4       -1.541162e+00
        71         4       -6.369040e-01
        72         4        1.451227e+00
        73         4       -9.829851e-01
        74         4       -1.262033e+00
        75         4        2.730562e-01
        76         4       -2.069341e+00
        77         4       -6.851617e-01
        78         4        2.535979e-01
        79         4        3.595838e-01
        80         4       -7.791686e-01
        81         4       -2.619144e-01
        82         4        2.514301e-01
        83         4        8.609617e-01
        84         4        7.558961e-01
        85         4        2.109001e-01
        86         4        7.611569e-01
        87         4        9.660212e-01
        88         4        3.017550e-01
        89         4       -1.706323e-01
        90         4       -1.579106e-01
        91         4        4.519580e-01
        92         4       -6.421018e-01
        93         4       -3.295534e+00
        94         4       -9.560803e-01
        95         4       -1.521426e+00
        96         4       -7.510302e-01
        97         4        3.318778e-02
        98         4        2.031543e+00
        99         4        2.558364e+00
       100         4        1.065585e+00
         1         5        1.715590e+00
         2         5       -6.780709e-01
         3         5        4.051489e-01
         4         5       -1.490238e+00
         5         5       -1.569263e+00
         6         5       -1.799707e-01
         7         5       -9.686311e-01
         8         5       -3.322344e-01
         9         5        1.308149e-01
        10         5        2.886941e-01
        11         5        6.980439e-01
        12         5       -1.676117e+00
        13         5       -3.072989e-01
        14         5       -4.478961e-01
        15         5        2.509635e+00
        16         5        3.588710e-01
        17         5       -8.391618e-01
        18         5       -9.282919e-02
        19         5        9.229524e-01
        20         5       -1.224103e+00
        21         5        3.044648e-01
        22         5        5.694789e-01
        23         5       -1.176296e+00
        24         5        2.885333e-01
        25         5       -2.401878e-02
        26         5       -1.348872e+00
        27         5        1.096224e-01
        28         5       -1.095912e+00
        29         5        2.024193e-02
        30         5        1.190006e-01
        31         5       -2.116291e+00
        32         5       -2.253999e+00
        33         5       -1.910083e-01
        34         5        9.064663e-01
        35         5        7.687164e-02
        36         5       -1.452020e+00
        37         5       -2.712528e-01
        38         5       -2.073660e+00
        39         5       -1.351331e-01
        40         5        1.258371e+00
        41         5        2.771492e-01
        42         5       -1.236842e+00
        43         5       -4.688147e-01
        44         5        3.947966e-01
        45         5       -3.793748e-02
        46         5        1.429560e+00
        47         5       -1.131982e+00
        48         5        1.778272e+00
        49         5        5.331604e-01
        50         5       -4.529306e-01
        51         5       -2.152786e+00
        52         5        1.057641e+00
        53         5       -4.311936e-01
        54         5        6.882847e-01
        55         5       -2.620312e-01
        56         5        1.255838e+00
        57         5        1.271618e+00
        58         5        1.600015e+00
        59         5       -6.565838e-01
        60         5        2.653068e+00
        61         5        5.385411e-01
        62         5        4.166372e-02
        63         5       -8.824970e-01
        64         5       -1.232426e+00
        65         5        1.198388e+00
        66         5        9.675886e-01
        67         5       -5.321189e-01
        68         5       -1.071463e+00
        69         5       -5.525684e-01
        70         5        1.256822e+00
        71         5       -2.323209e-01
        72         5       -1.384197e+00
        73         5        1.181195e+00
        74         5       -1.864682e-01
        75         5       -2.525435e-01
        76         5       -4.248306e-02
        77         5        9.408242e-01
        78         5       -2.910852e-01
        79         5       -1.033942e+00
        80         5       -7.754100e-01
        81         5        5.518471e-01
        82         5        1.701037e+00
        83         5        7.644784e-01
        84         5       -1.173234e+00
        85         5       -8.562160e-01
        86         5        1.176819e+00
        87         5        5.297304e-01
        88         5       -3.358055e-01
        89         5       -1.452552e+00
        90         5        7.854441e-01
        91         5       -3.956626e-02
        92         5        8.309304e-01
        93         5        1.517748e-01
        94         5        8.793110e-01
        95         5       -5.579230e-01
        96         5       -4.181225e-01
        97         5       -3.991113e-01
        98         5       -4.547609e-01
        99         5       -7.670588e-01
       100         5       -4.680332e-01
;

param theta:=
    1       -1.087652e+00
    2       -5.603603e-01
    3        7.636225e-01
    4       -4.636447e-01
    5        6.910269e-01
;
param X_true:=
    1        2.545789e+00
    2       -1.096942e+00
    3        9.099709e-01
    4        1.489846e-01
    5       -1.900763e+00
    6        4.067059e-01
    7       -2.317351e+00
    8       -1.061222e+00
    9       -6.008188e-01
   10       -1.110360e+00
   11        9.554056e-01
   12        3.468101e-01
   13       -2.397696e+00
   14       -1.549585e+00
   15        1.381593e+00
   16       -6.795486e-01
   17        2.891273e+00
   18       -4.770422e-01
   19       -1.337565e+00
   20       -6.317590e-01
   21       -1.770901e+00
   22        1.997861e+00
   23       -1.650959e+00
   24        4.550795e-01
   25        5.440600e-01
   26       -8.506254e-01
   27        1.406452e+00
   28       -1.405245e+00
   29        2.269409e-01
   30       -1.735224e+00
   31       -1.352267e-02
   32       -3.206655e+00
   33        1.911766e+00
   34        4.339120e-01
   35        3.895943e-01
   36       -1.749618e+00
   37        2.248267e-01
   38       -5.983377e-01
   39        1.049666e+00
   40        1.819774e+00
   41       -4.771108e-01
   42       -3.144589e+00
   43        1.911552e-01
   44       -1.737881e-01
   45       -5.344789e-01
   46       -2.020244e+00
   47        1.181198e+00
   48        6.475649e-01
   49        2.203070e+00
   50       -1.182719e-01
   51       -6.809689e-01
   52        2.229491e+00
   53       -3.323943e+00
   54        4.016020e-01
   55       -3.640832e-01
   56        4.386951e+00
   57        2.734745e+00
   58        1.116135e+00
   59        2.036829e+00
   60        2.323978e+00
   61        9.480989e-01
   62       -9.929827e-01
   63        1.078889e-01
   64        3.283462e-01
   65        8.394481e-01
   66       -1.279631e+00
   67       -2.319953e+00
   68       -5.720182e-01
   69       -1.616520e+00
   70        3.722719e+00
   71        1.367713e+00
   72       -2.412222e+00
   73        5.839586e-01
   74        4.266128e+00
   75        4.850446e-01
   76        1.843347e+00
   77       -1.233820e-01
   78        6.077921e-01
   79       -4.068453e-01
   80       -1.545552e+00
   81        2.313315e+00
   82        1.093914e+00
   83        2.444016e+00
   84       -1.933473e-02
   85        5.084626e-01
   86       -1.107089e+00
   87       -2.556930e+00
   88       -2.466963e+00
   89        8.085097e-01
   90        4.706205e+00
   91        2.435148e-01
   92        1.358242e+00
   93       -1.293594e+00
   94        1.604854e+00
   95        4.043594e-01
   96        1.187756e+00
   97        2.356022e+00
   98        4.617738e-01
   99       -2.379510e+00
  100        2.240181e+00
;
param X:=
    1        2.545789e+00
    2       -1.096942e+00
    3        9.293559e-01
    4       -1.649909e-01
    5       -1.900763e+00
    6       -1.175832e+00
    7       -2.317351e+00
    8        1.086939e+00
    9       -2.441374e-01
   10        6.201630e-01
   11        1.918435e+00
   12       -1.190680e+00
   13        1.161909e+00
   14       -4.056152e-03
   15        1.381593e+00
   16       -6.795486e-01
   17       -8.147114e-01
   18        2.204687e-01
   19        5.116684e-02
   20        6.174123e-01
   21       -8.669337e-01
   22        2.751022e+00
   23       -1.650959e+00
   24        6.410697e-02
   25       -1.686249e+00
   26       -8.506254e-01
   27        3.154460e-01
   28        1.801832e+00
   29       -1.047955e+00
   30       -1.970146e-01
   31        3.603549e-02
   32        3.712037e-01
   33       -2.095229e+00
   34        2.489890e+00
   35        9.739065e-01
   36        1.005788e+00
   37        2.248267e-01
   38       -5.983377e-01
   39        1.049666e+00
   40        7.189361e-02
   41       -9.091033e-01
   42       -4.748379e-01
   43        4.460180e-01
   44        7.010835e-01
   45       -2.319500e-01
   46       -4.014968e-01
   47       -5.734086e-01
   48        2.637764e-01
   49        2.203070e+00
   50       -1.572506e+00
   51        1.207172e-01
   52       -1.222447e+00
   53       -3.323943e+00
   54       -1.677306e+00
   55       -7.352775e-01
   56        6.943558e-03
   57        2.788886e-01
   58        1.116135e+00
   59       -7.905618e-01
   60        3.997444e-01
   61       -6.838983e-01
   62       -3.972439e-01
   63       -4.143742e-01
   64       -1.601852e-01
   65        8.394481e-01
   66       -4.392577e-02
   67       -2.319953e+00
   68       -5.720182e-01
   69       -6.740270e-01
   70        1.142970e+00
   71        1.209564e+00
   72       -1.132509e+00
   73       -2.780315e+00
   74       -6.191586e-01
   75       -1.188430e+00
   76        2.129158e+00
   77       -2.470890e-02
   78        3.368914e-01
   79       -4.335690e-01
   80       -1.545552e+00
   81       -9.545354e-01
   82       -1.191780e+00
   83        3.136453e-01
   84       -6.137536e-01
   85       -5.681441e-01
   86       -1.107089e+00
   87        2.308726e+00
   88        2.276418e+00
   89       -1.497448e+00
   90        4.706205e+00
   91       -5.710847e-01
   92       -1.720340e-01
   93       -1.293594e+00
   94        6.635497e-01
   95       -5.963443e-01
   96        1.187756e+00
   97        1.839180e-01
   98       -1.815965e+00
   99        6.083892e-01
  100       -8.205099e-01
;
param outliervec:=
    1    0
    2    0
    3    1
    4    1
    5    0
    6    1
    7    0
    8    1
    9    1
   10    1
   11    1
   12    1
   13    1
   14    1
   15    0
   16    0
   17    1
   18    1
   19    1
   20    1
   21    1
   22    1
   23    0
   24    1
   25    1
   26    0
   27    1
   28    1
   29    1
   30    1
   31    1
   32    1
   33    1
   34    1
   35    1
   36    1
   37    0
   38    0
   39    0
   40    1
   41    1
   42    1
   43    1
   44    1
   45    1
   46    1
   47    1
   48    1
   49    0
   50    1
   51    1
   52    1
   53    0
   54    1
   55    1
   56    1
   57    1
   58    0
   59    1
   60    1
   61    1
   62    1
   63    1
   64    1
   65    0
   66    1
   67    0
   68    0
   69    1
   70    1
   71    1
   72    1
   73    1
   74    1
   75    1
   76    1
   77    1
   78    1
   79    1
   80    0
   81    1
   82    1
   83    1
   84    1
   85    1
   86    0
   87    1
   88    1
   89    1
   90    0
   91    1
   92    1
   93    0
   94    1
   95    1
   96    0
   97    1
   98    1
   99    1
  100    1
;